language Essence 1.3

letting bot_end be [305, 23, 19, 245, 308, 470, 229, 410, 41, 184, 50, 314, 382, 105, 4, 52, 226, 43, 243; int(1..19)]
letting bot_start be
        [108, 189, 397, 306, 101, 40, 204, 327, 58, 152, 325, 65, 244, 197, 192, 266, 457, 368, 259; int(1..19)]
letting bots be 19
letting buffer_col be 2
letting buffer_row be 2
letting corridor_size be 1
letting n_shelves_col be 10
letting n_shelves_row be 5
letting shelf_col_size be 2
letting shelf_row_size be 1
